NAME          ClpDefau
ROWS
 N  OBJROW
 L  R_100_0
 L  R_100_1
 L  R_100_2
 L  R_100_3
 L  R_100_4
 L  R_100_5
 L  R_100_6
 L  R_100_7
 L  R_100_8
 L  R_100_9
 L  R_100_10
 L  R_100_11
 L  R_100_12
 L  R_100_13
 L  R_100_14
 L  R_100_15
COLUMNS
    x_0       OBJROW     -1.           R_100_1   57.         
    x_0       R_100_2   5.             R_100_4   41.         
    x_0       R_100_6   68.            R_100_7   23.         
    x_0       R_100_8   4.             R_100_9   23.         
    x_0       R_100_10  66.            R_100_11  66.         
    x_0       R_100_12  24.            R_100_14  54.         
    x_0       R_100_15  98.         
    x_1       OBJROW     -2.           R_100_0   76.         
    x_1       R_100_1   58.            R_100_2   97.         
    x_1       R_100_3   95.            R_100_4   68.         
    x_1       R_100_5   36.            R_100_7   46.         
    x_1       R_100_8   59.            R_100_10  73.         
    x_1       R_100_11  72.            R_100_12  63.         
    x_1       R_100_13  42.         
    x_2       OBJROW     -2.           R_100_1   99.         
    x_2       R_100_3   91.            R_100_5   65.         
    x_2       R_100_6   76.            R_100_7   94.         
    x_2       R_100_8   66.            R_100_9   88.         
    x_2       R_100_10  10.            R_100_11  44.         
    x_2       R_100_12  25.            R_100_14  74.         
    x_2       R_100_15  35.         
    x_3       OBJROW     -6.           R_100_0   88.         
    x_3       R_100_2   67.            R_100_3   35.         
    x_3       R_100_4   27.            R_100_6   92.         
    x_3       R_100_7   8.             R_100_8   23.         
    x_3       R_100_9   4.             R_100_10  9.          
    x_3       R_100_11  94.            R_100_13  17.         
    x_3       R_100_15  24.         
    x_4       OBJROW     -3.           R_100_0   1.          
    x_4       R_100_1   6.             R_100_2   32.         
    x_4       R_100_3   5.             R_100_4   79.         
    x_4       R_100_5   96.            R_100_6   44.         
    x_4       R_100_7   40.            R_100_8   99.         
    x_4       R_100_9   6.             R_100_11  80.         
    x_4       R_100_12  61.            R_100_14  88.         
    x_4       R_100_15  14.         
    x_5       OBJROW     -5.           R_100_0   17.         
    x_5       R_100_1   100.           R_100_2   66.         
    x_5       R_100_3   44.            R_100_4   78.         
    x_5       R_100_6   90.            R_100_7   18.         
    x_5       R_100_8   33.            R_100_9   21.         
    x_5       R_100_10  59.            R_100_11  66.         
    x_5       R_100_13  5.             R_100_15  57.         
    x_6       OBJROW     -5.           R_100_0   11.         
    x_6       R_100_1   80.            R_100_2   80.         
    x_6       R_100_3   33.            R_100_4   36.         
    x_6       R_100_5   1.             R_100_6   50.         
    x_6       R_100_7   15.            R_100_8   12.         
    x_6       R_100_9   13.            R_100_10  97.         
    x_6       R_100_11  28.            R_100_12  86.         
    x_6       R_100_13  40.            R_100_14  49.         
    x_6       R_100_15  98.         
    x_7       OBJROW     -10.          R_100_1   56.         
    x_7       R_100_2   3.             R_100_3   7.          
    x_7       R_100_6   13.            R_100_7   62.         
    x_7       R_100_8   67.            R_100_10  47.         
    x_7       R_100_11  48.            R_100_12  88.         
    x_7       R_100_13  14.            R_100_14  100.        
    x_7       R_100_15  3.          
    x_8       OBJROW     -4.           R_100_1   82.         
    x_8       R_100_2   27.            R_100_4   1.          
    x_8       R_100_5   48.            R_100_6   93.         
    x_8       R_100_7   97.            R_100_8   15.         
    x_8       R_100_9   51.            R_100_10  18.         
    x_8       R_100_11  51.            R_100_13  16.         
    x_8       R_100_14  43.            R_100_15  28.         
    x_9       OBJROW     -10.          R_100_0   4.          
    x_9       R_100_1   61.            R_100_2   93.         
    x_9       R_100_3   38.            R_100_4   59.         
    x_9       R_100_5   48.            R_100_6   68.         
    x_9       R_100_8   94.            R_100_12  30.         
    x_9       R_100_13  77.            R_100_14  55.         
    x_9       R_100_15  90.         
    x_10      OBJROW     -1.           R_100_1   74.         
    x_10      R_100_2   46.            R_100_3   70.         
    x_10      R_100_4   54.            R_100_6   88.         
    x_10      R_100_8   17.            R_100_10  91.         
    x_10      R_100_11  88.            R_100_12  23.         
    x_10      R_100_13  15.            R_100_14  97.         
    x_10      R_100_15  43.         
    x_11      OBJROW     -10.          R_100_0   92.         
    x_11      R_100_1   22.            R_100_3   91.         
    x_11      R_100_4   46.            R_100_5   74.         
    x_11      R_100_6   60.            R_100_7   4.          
    x_11      R_100_9   95.            R_100_10  66.         
    x_11      R_100_11  36.            R_100_12  91.         
    x_11      R_100_13  53.            R_100_14  61.         
    x_11      R_100_15  71.         
    x_12      OBJROW     -3.           R_100_0   96.         
    x_12      R_100_2   93.            R_100_3   80.         
    x_12      R_100_4   86.            R_100_5   82.         
    x_12      R_100_7   68.            R_100_8   60.         
    x_12      R_100_9   13.            R_100_10  28.         
    x_12      R_100_11  78.            R_100_12  28.         
    x_12      R_100_14  72.            R_100_15  26.         
    x_13      OBJROW     -7.           R_100_0   76.         
    x_13      R_100_1   63.            R_100_3   79.         
    x_13      R_100_4   62.            R_100_5   73.         
    x_13      R_100_6   92.            R_100_7   98.         
    x_13      R_100_8   1.             R_100_10  86.         
    x_13      R_100_11  97.            R_100_12  87.         
    x_13      R_100_14  65.            R_100_15  11.         
    x_14      OBJROW     -7.           R_100_0   45.         
    x_14      R_100_1   97.            R_100_4   81.         
    x_14      R_100_5   93.            R_100_6   21.         
    x_14      R_100_7   60.            R_100_8   20.         
    x_14      R_100_9   72.            R_100_10  1.          
    x_14      R_100_11  69.            R_100_13  27.         
    x_14      R_100_15  84.         
    x_15      OBJROW     -9.           R_100_0   89.         
    x_15      R_100_1   39.            R_100_2   41.         
    x_15      R_100_3   83.            R_100_5   83.         
    x_15      R_100_6   12.            R_100_7   27.         
    x_15      R_100_8   68.            R_100_10  65.         
    x_15      R_100_11  40.            R_100_12  59.         
    x_15      R_100_13  67.            R_100_14  15.         
    x_15      R_100_15  49.         
RHS
    RHS       R_100_0   733.           R_100_1   694.        
    RHS       R_100_2   721.           R_100_3   731.        
    RHS       R_100_4   659.           R_100_5   725.        
    RHS       R_100_6   757.           R_100_7   732.        
    RHS       R_100_8   682.           R_100_9   767.        
    RHS       R_100_10  753.           R_100_11  714.        
    RHS       R_100_12  758.           R_100_13  674.        
    RHS       R_100_14  823.           R_100_15  753.        
BOUNDS
 UI BOUND     x_0       10.         
 UI BOUND     x_1       10.         
 UI BOUND     x_2       10.         
 UI BOUND     x_3       10.         
 UI BOUND     x_4       10.         
 UI BOUND     x_5       10.         
 UI BOUND     x_6       10.         
 UI BOUND     x_7       10.         
 UI BOUND     x_8       10.         
 UI BOUND     x_9       10.         
 UI BOUND     x_10      10.         
 UI BOUND     x_11      10.         
 UI BOUND     x_12      10.         
 UI BOUND     x_13      10.         
 UI BOUND     x_14      10.         
 UI BOUND     x_15      10.         
ENDATA
